m = 5;

n = 8;

L = [190, 185, 185, 190,180];

S = [11, 11, 23, 16, 2, 1, 24, 14];

D = [|0, 20, 19, 28, 58, 48, 45, 32, 90, 
   |103, 0, 81, 107, 38, 110, 55, 94, 76,
   |73, 41, 0, 80, 40, 29, 26, 13, 75,
   |28, 48, 47, 0, 55, 59, 52, 60, 62, 
   |83, 38, 79, 87, 0, 102, 58, 92, 56, 
   |76, 44, 72, 83, 43, 0, 98, 16, 46, 
   |65, 55, 26, 64, 58, 55, 0, 39, 69, 
   |60, 28, 56, 67, 27, 16, 82, 0, 62,
   |58, 76, 77, 81, 55, 46, 69, 62, 0, 
   |];